\ LP format - for model browsing. Use MPS format to capture full model detail.
Maximize
  9 x_1 + 5 x_2 + 3 x_3 + 7 x_4 + 6 x_5 + 3 x_6 + 4 x_7 + 10 x_8 + 8 x_9
   + 5 x_10 + x_11 + 4 x_12 + 9 x_13 + 9 x_14 + 6 x_15 + 9 x_16 + 4 x_17
   + 3 x_18 + 7 x_19 + 2 x_20
Subject To
 C_1: 9 x_1 + 8 x_2 + 5 x_3 + 5 x_7 + 8 x_9 + 2 x_10 + 9 x_13 + 3 x_15
   + 2 x_16 + 7 x_18 + 8 x_19 <= 33
 C_2: 6 x_1 + 8 x_2 + x_4 + 10 x_5 + 8 x_6 + 5 x_8 + 2 x_12 + 2 x_13
   + 10 x_15 + 10 x_16 + 4 x_17 + 2 x_20 <= 34
 C_3: 3 x_1 + 4 x_2 + 3 x_3 + 3 x_4 + 4 x_5 + 8 x_7 + 10 x_8 + 9 x_9 + x_10
   + x_12 + x_14 + x_18 + 5 x_20 <= 26
 C_4: 6 x_4 + 9 x_6 + 6 x_7 + 5 x_9 + x_10 + 10 x_12 + 8 x_15 + 8 x_19
   <= 26
 C_5: 6 x_6 + 10 x_7 + 7 x_11 + 6 x_14 + 4 x_15 + 2 x_18 + 6 x_19 <= 20
 C_6: 7 x_3 + x_5 + 8 x_6 + 2 x_7 + 3 x_9 + 6 x_10 + 4 x_14 + 5 x_15
   + 8 x_16 + 10 x_18 <= 27
 C_7: 6 x_1 + 4 x_3 + 9 x_4 + 6 x_6 + 10 x_7 + 4 x_9 + 5 x_12 + 7 x_13
   + 6 x_14 + 7 x_15 + 2 x_16 + 2 x_20 <= 34
 C_8: 4 x_1 + 8 x_2 + 2 x_4 + 8 x_6 + 8 x_7 + 9 x_9 + x_10 + 2 x_15
   + 6 x_17 + 5 x_18 + 10 x_19 <= 31
 C_9: 3 x_1 + 3 x_4 + 10 x_5 + 4 x_6 + 6 x_7 + x_8 + x_11 + 10 x_12
   + 2 x_14 + 7 x_16 + x_18 + 3 x_19 + 6 x_20 <= 28
 C_10: 3 x_5 + 7 x_8 + 7 x_9 + 4 x_10 + 6 x_12 + 3 x_13 + 3 x_19 <= 16
Bounds
Binaries
 x_1 x_2 x_3 x_4 x_5 x_6 x_7 x_8 x_9 x_10 x_11 x_12 x_13 x_14 x_15 x_16
 x_17 x_18 x_19 x_20
End
